data/lp_files/pEFS/49_5.lp
\ Model foo
\ LP format - for model browsing. Use MPS format to capture full model detail.
Minimize
  z
Subject To
 allocateEach[1]: x[1,1] + x[2,1] + x[3,1] = 1
 allocateEach[2]: x[1,2] + x[2,2] + x[3,2] = 1
 allocateEach[3]: x[1,3] + x[2,3] + x[3,3] = 1
 allocateEach[4]: x[1,4] + x[2,4] + x[3,4] = 1
 allocateEach[5]: x[1,5] + x[2,5] + x[3,5] = 1
 allocateEach[6]: x[1,6] + x[2,6] + x[3,6] = 1
 allocateEach[7]: x[1,7] + x[2,7] + x[3,7] = 1
 allocateEach[8]: x[1,8] + x[2,8] + x[3,8] = 1
 allocateEach[9]: x[1,9] + x[2,9] + x[3,9] = 1
 allocateAllCash: cashProportion[1] + cashProportion[2] + cashProportion[3]
   = 1
 findWorstP[1,2]: z + 0.0484378784209252 cashProportion[1]
   - 0.0484378784209252 cashProportion[2] + 0.1517235811738113 x[1,1]
   + 0.0123193670783886 x[1,2] + 0.0837167998708323 x[1,3]
   + 0.1088560587712925 x[1,4] + 0.1316380075886009 x[1,5]
   + 0.0683297004924518 x[1,6] + 0.1488173084685557 x[1,7]
   + 0.1038508113344636 x[1,8] + 0.1423104868006781 x[1,9]
   - 0.1517235811738113 x[2,1] - 0.0123193670783886 x[2,2]
   - 0.0837167998708323 x[2,3] - 0.1088560587712925 x[2,4]
   - 0.1316380075886009 x[2,5] - 0.0683297004924518 x[2,6]
   - 0.1488173084685557 x[2,7] - 0.1038508113344636 x[2,8]
   - 0.1423104868006781 x[2,9] >= 0
 findWorstP[1,3]: z + 0.0484378784209252 cashProportion[1]
   - 0.0484378784209252 cashProportion[3] + 0.1517235811738113 x[1,1]
   + 0.0123193670783886 x[1,2] + 0.0837167998708323 x[1,3]
   + 0.1088560587712925 x[1,4] + 0.1316380075886009 x[1,5]
   + 0.0683297004924518 x[1,6] + 0.1488173084685557 x[1,7]
   + 0.1038508113344636 x[1,8] + 0.1423104868006781 x[1,9]
   - 0.1517235811738113 x[3,1] - 0.0123193670783886 x[3,2]
   - 0.0837167998708323 x[3,3] - 0.1088560587712925 x[3,4]
   - 0.1316380075886009 x[3,5] - 0.0683297004924518 x[3,6]
   - 0.1488173084685557 x[3,7] - 0.1038508113344636 x[3,8]
   - 0.1423104868006781 x[3,9] >= 0
 findWorstP[2,1]: z - 0.0558576003574886 cashProportion[1]
   + 0.0558576003574886 cashProportion[2] - 0.1372793624785879 x[1,1]
   - 0.0594324867803679 x[1,2] - 0.1775713115364564 x[1,3]
   - 0.0646272436136144 x[1,4] - 0.149177031354733 x[1,5]
   - 0.0305541073955463 x[1,6] - 0.1113986743129515 x[1,7]
   - 0.1092388470991286 x[1,8] - 0.1048633350711254 x[1,9]
   + 0.1372793624785879 x[2,1] + 0.0594324867803679 x[2,2]
   + 0.1775713115364564 x[2,3] + 0.0646272436136144 x[2,4]
   + 0.149177031354733 x[2,5] + 0.0305541073955463 x[2,6]
   + 0.1113986743129515 x[2,7] + 0.1092388470991286 x[2,8]
   + 0.1048633350711254 x[2,9] >= 0
 findWorstP[2,3]: z + 0.0558576003574886 cashProportion[2]
   - 0.0558576003574886 cashProportion[3] + 0.1372793624785879 x[2,1]
   + 0.0594324867803679 x[2,2] + 0.1775713115364564 x[2,3]
   + 0.0646272436136144 x[2,4] + 0.149177031354733 x[2,5]
   + 0.0305541073955463 x[2,6] + 0.1113986743129515 x[2,7]
   + 0.1092388470991286 x[2,8] + 0.1048633350711254 x[2,9]
   - 0.1372793624785879 x[3,1] - 0.0594324867803679 x[3,2]
   - 0.1775713115364564 x[3,3] - 0.0646272436136144 x[3,4]
   - 0.149177031354733 x[3,5] - 0.0305541073955463 x[3,6]
   - 0.1113986743129515 x[3,7] - 0.1092388470991286 x[3,8]
   - 0.1048633350711254 x[3,9] >= 0
 findWorstP[3,1]: z - 0.0633218650399983 cashProportion[1]
   + 0.0633218650399983 cashProportion[3] - 0.175675960909302 x[1,1]
   - 0.0668045676171982 x[1,2] - 0.0396183802266923 x[1,3]
   - 0.2103341283745277 x[1,4] - 0.0735588998881314 x[1,5]
   - 0.1611119319501024 x[1,6] - 0.0952782995968508 x[1,7]
   - 0.0692319057770648 x[1,8] - 0.0450640606201321 x[1,9]
   + 0.175675960909302 x[3,1] + 0.0668045676171982 x[3,2]
   + 0.0396183802266923 x[3,3] + 0.2103341283745277 x[3,4]
   + 0.0735588998881314 x[3,5] + 0.1611119319501024 x[3,6]
   + 0.0952782995968508 x[3,7] + 0.0692319057770648 x[3,8]
   + 0.0450640606201321 x[3,9] >= 0
 findWorstP[3,2]: z - 0.0633218650399983 cashProportion[2]
   + 0.0633218650399983 cashProportion[3] - 0.175675960909302 x[2,1]
   - 0.0668045676171982 x[2,2] - 0.0396183802266923 x[2,3]
   - 0.2103341283745277 x[2,4] - 0.0735588998881314 x[2,5]
   - 0.1611119319501024 x[2,6] - 0.0952782995968508 x[2,7]
   - 0.0692319057770648 x[2,8] - 0.0450640606201321 x[2,9]
   + 0.175675960909302 x[3,1] + 0.0668045676171982 x[3,2]
   + 0.0396183802266923 x[3,3] + 0.2103341283745277 x[3,4]
   + 0.0735588998881314 x[3,5] + 0.1611119319501024 x[3,6]
   + 0.0952782995968508 x[3,7] + 0.0692319057770648 x[3,8]
   + 0.0450640606201321 x[3,9] >= 0
Bounds
 z <= 1
 -infinity <= cashProportion[1] <= 1
 -infinity <= cashProportion[2] <= 1
 -infinity <= cashProportion[3] <= 1
Binaries
 x[1,1] x[1,2] x[1,3] x[1,4] x[1,5] x[1,6] x[1,7] x[1,8] x[1,9] x[2,1]
 x[2,2] x[2,3] x[2,4] x[2,5] x[2,6] x[2,7] x[2,8] x[2,9] x[3,1] x[3,2]
 x[3,3] x[3,4] x[3,5] x[3,6] x[3,7] x[3,8] x[3,9]
End
