data/mps_files/pEFS/49_5.mps
NAME foo
ROWS
 N  OBJ
 E  allocateEach[1]
 E  allocateEach[2]
 E  allocateEach[3]
 E  allocateEach[4]
 E  allocateEach[5]
 E  allocateEach[6]
 E  allocateEach[7]
 E  allocateEach[8]
 E  allocateEach[9]
 E  allocateAllCash
 G  findWorstP[1,2]
 G  findWorstP[1,3]
 G  findWorstP[2,1]
 G  findWorstP[2,3]
 G  findWorstP[3,1]
 G  findWorstP[3,2]
COLUMNS
    z         OBJ       1
    z         findWorstP[1,2]  1
    z         findWorstP[1,3]  1
    z         findWorstP[2,1]  1
    z         findWorstP[2,3]  1
    z         findWorstP[3,1]  1
    z         findWorstP[3,2]  1
    cashProportion[1]  allocateAllCash  1
    cashProportion[1]  findWorstP[1,2]  4.8437878420925166e-02
    cashProportion[1]  findWorstP[1,3]  4.8437878420925166e-02
    cashProportion[1]  findWorstP[2,1]  -5.5857600357488643e-02
    cashProportion[1]  findWorstP[3,1]  -0.0633218650399983
    cashProportion[2]  allocateAllCash  1
    cashProportion[2]  findWorstP[1,2]  -4.8437878420925166e-02
    cashProportion[2]  findWorstP[2,1]  5.5857600357488643e-02
    cashProportion[2]  findWorstP[2,3]  5.5857600357488643e-02
    cashProportion[2]  findWorstP[3,2]  -0.0633218650399983
    cashProportion[3]  allocateAllCash  1
    cashProportion[3]  findWorstP[1,3]  -4.8437878420925166e-02
    cashProportion[3]  findWorstP[2,3]  -5.5857600357488643e-02
    cashProportion[3]  findWorstP[3,1]  0.0633218650399983
    cashProportion[3]  findWorstP[3,2]  0.0633218650399983
    MARKER    'MARKER'                 'INTORG'
    x[1,1]    allocateEach[1]  1
    x[1,1]    findWorstP[1,2]  1.5172358117381127e-01
    x[1,1]    findWorstP[1,3]  1.5172358117381127e-01
    x[1,1]    findWorstP[2,1]  -1.3727936247858791e-01
    x[1,1]    findWorstP[3,1]  -0.175675960909302
    x[1,2]    allocateEach[2]  1
    x[1,2]    findWorstP[1,2]  1.2319367078388635e-02
    x[1,2]    findWorstP[1,3]  1.2319367078388635e-02
    x[1,2]    findWorstP[2,1]  -5.9432486780367916e-02
    x[1,2]    findWorstP[3,1]  -6.6804567617198218e-02
    x[1,3]    allocateEach[3]  1
    x[1,3]    findWorstP[1,2]  8.3716799870832317e-02
    x[1,3]    findWorstP[1,3]  8.3716799870832317e-02
    x[1,3]    findWorstP[2,1]  -1.7757131153645642e-01
    x[1,3]    findWorstP[3,1]  -3.9618380226692278e-02
    x[1,4]    allocateEach[4]  1
    x[1,4]    findWorstP[1,2]  1.0885605877129249e-01
    x[1,4]    findWorstP[1,3]  1.0885605877129249e-01
    x[1,4]    findWorstP[2,1]  -6.4627243613614369e-02
    x[1,4]    findWorstP[3,1]  -2.1033412837452772e-01
    x[1,5]    allocateEach[5]  1
    x[1,5]    findWorstP[1,2]  1.3163800758860095e-01
    x[1,5]    findWorstP[1,3]  1.3163800758860095e-01
    x[1,5]    findWorstP[2,1]  -0.149177031354733
    x[1,5]    findWorstP[3,1]  -7.3558899888131371e-02
    x[1,6]    allocateEach[6]  1
    x[1,6]    findWorstP[1,2]  6.8329700492451767e-02
    x[1,6]    findWorstP[1,3]  6.8329700492451767e-02
    x[1,6]    findWorstP[2,1]  -3.0554107395546287e-02
    x[1,6]    findWorstP[3,1]  -1.6111193195010237e-01
    x[1,7]    allocateEach[7]  1
    x[1,7]    findWorstP[1,2]  1.4881730846855573e-01
    x[1,7]    findWorstP[1,3]  1.4881730846855573e-01
    x[1,7]    findWorstP[2,1]  -1.1139867431295153e-01
    x[1,7]    findWorstP[3,1]  -0.0952782995968508
    x[1,8]    allocateEach[8]  1
    x[1,8]    findWorstP[1,2]  1.0385081133446356e-01
    x[1,8]    findWorstP[1,3]  1.0385081133446356e-01
    x[1,8]    findWorstP[2,1]  -1.0923884709912862e-01
    x[1,8]    findWorstP[3,1]  -6.9231905777064826e-02
    x[1,9]    allocateEach[9]  1
    x[1,9]    findWorstP[1,2]  1.4231048680067812e-01
    x[1,9]    findWorstP[1,3]  1.4231048680067812e-01
    x[1,9]    findWorstP[2,1]  -1.0486333507112536e-01
    x[1,9]    findWorstP[3,1]  -4.5064060620132129e-02
    x[2,1]    allocateEach[1]  1
    x[2,1]    findWorstP[1,2]  -1.5172358117381127e-01
    x[2,1]    findWorstP[2,1]  1.3727936247858791e-01
    x[2,1]    findWorstP[2,3]  1.3727936247858791e-01
    x[2,1]    findWorstP[3,2]  -0.175675960909302
    x[2,2]    allocateEach[2]  1
    x[2,2]    findWorstP[1,2]  -1.2319367078388635e-02
    x[2,2]    findWorstP[2,1]  5.9432486780367916e-02
    x[2,2]    findWorstP[2,3]  5.9432486780367916e-02
    x[2,2]    findWorstP[3,2]  -6.6804567617198218e-02
    x[2,3]    allocateEach[3]  1
    x[2,3]    findWorstP[1,2]  -8.3716799870832317e-02
    x[2,3]    findWorstP[2,1]  1.7757131153645642e-01
    x[2,3]    findWorstP[2,3]  1.7757131153645642e-01
    x[2,3]    findWorstP[3,2]  -3.9618380226692278e-02
    x[2,4]    allocateEach[4]  1
    x[2,4]    findWorstP[1,2]  -1.0885605877129249e-01
    x[2,4]    findWorstP[2,1]  6.4627243613614369e-02
    x[2,4]    findWorstP[2,3]  6.4627243613614369e-02
    x[2,4]    findWorstP[3,2]  -2.1033412837452772e-01
    x[2,5]    allocateEach[5]  1
    x[2,5]    findWorstP[1,2]  -1.3163800758860095e-01
    x[2,5]    findWorstP[2,1]  0.149177031354733
    x[2,5]    findWorstP[2,3]  0.149177031354733
    x[2,5]    findWorstP[3,2]  -7.3558899888131371e-02
    x[2,6]    allocateEach[6]  1
    x[2,6]    findWorstP[1,2]  -6.8329700492451767e-02
    x[2,6]    findWorstP[2,1]  3.0554107395546287e-02
    x[2,6]    findWorstP[2,3]  3.0554107395546287e-02
    x[2,6]    findWorstP[3,2]  -1.6111193195010237e-01
    x[2,7]    allocateEach[7]  1
    x[2,7]    findWorstP[1,2]  -1.4881730846855573e-01
    x[2,7]    findWorstP[2,1]  1.1139867431295153e-01
    x[2,7]    findWorstP[2,3]  1.1139867431295153e-01
    x[2,7]    findWorstP[3,2]  -0.0952782995968508
    x[2,8]    allocateEach[8]  1
    x[2,8]    findWorstP[1,2]  -1.0385081133446356e-01
    x[2,8]    findWorstP[2,1]  1.0923884709912862e-01
    x[2,8]    findWorstP[2,3]  1.0923884709912862e-01
    x[2,8]    findWorstP[3,2]  -6.9231905777064826e-02
    x[2,9]    allocateEach[9]  1
    x[2,9]    findWorstP[1,2]  -1.4231048680067812e-01
    x[2,9]    findWorstP[2,1]  1.0486333507112536e-01
    x[2,9]    findWorstP[2,3]  1.0486333507112536e-01
    x[2,9]    findWorstP[3,2]  -4.5064060620132129e-02
    x[3,1]    allocateEach[1]  1
    x[3,1]    findWorstP[1,3]  -1.5172358117381127e-01
    x[3,1]    findWorstP[2,3]  -1.3727936247858791e-01
    x[3,1]    findWorstP[3,1]  0.175675960909302
    x[3,1]    findWorstP[3,2]  0.175675960909302
    x[3,2]    allocateEach[2]  1
    x[3,2]    findWorstP[1,3]  -1.2319367078388635e-02
    x[3,2]    findWorstP[2,3]  -5.9432486780367916e-02
    x[3,2]    findWorstP[3,1]  6.6804567617198218e-02
    x[3,2]    findWorstP[3,2]  6.6804567617198218e-02
    x[3,3]    allocateEach[3]  1
    x[3,3]    findWorstP[1,3]  -8.3716799870832317e-02
    x[3,3]    findWorstP[2,3]  -1.7757131153645642e-01
    x[3,3]    findWorstP[3,1]  3.9618380226692278e-02
    x[3,3]    findWorstP[3,2]  3.9618380226692278e-02
    x[3,4]    allocateEach[4]  1
    x[3,4]    findWorstP[1,3]  -1.0885605877129249e-01
    x[3,4]    findWorstP[2,3]  -6.4627243613614369e-02
    x[3,4]    findWorstP[3,1]  2.1033412837452772e-01
    x[3,4]    findWorstP[3,2]  2.1033412837452772e-01
    x[3,5]    allocateEach[5]  1
    x[3,5]    findWorstP[1,3]  -1.3163800758860095e-01
    x[3,5]    findWorstP[2,3]  -0.149177031354733
    x[3,5]    findWorstP[3,1]  7.3558899888131371e-02
    x[3,5]    findWorstP[3,2]  7.3558899888131371e-02
    x[3,6]    allocateEach[6]  1
    x[3,6]    findWorstP[1,3]  -6.8329700492451767e-02
    x[3,6]    findWorstP[2,3]  -3.0554107395546287e-02
    x[3,6]    findWorstP[3,1]  1.6111193195010237e-01
    x[3,6]    findWorstP[3,2]  1.6111193195010237e-01
    x[3,7]    allocateEach[7]  1
    x[3,7]    findWorstP[1,3]  -1.4881730846855573e-01
    x[3,7]    findWorstP[2,3]  -1.1139867431295153e-01
    x[3,7]    findWorstP[3,1]  0.0952782995968508
    x[3,7]    findWorstP[3,2]  0.0952782995968508
    x[3,8]    allocateEach[8]  1
    x[3,8]    findWorstP[1,3]  -1.0385081133446356e-01
    x[3,8]    findWorstP[2,3]  -1.0923884709912862e-01
    x[3,8]    findWorstP[3,1]  6.9231905777064826e-02
    x[3,8]    findWorstP[3,2]  6.9231905777064826e-02
    x[3,9]    allocateEach[9]  1
    x[3,9]    findWorstP[1,3]  -1.4231048680067812e-01
    x[3,9]    findWorstP[2,3]  -1.0486333507112536e-01
    x[3,9]    findWorstP[3,1]  4.5064060620132129e-02
    x[3,9]    findWorstP[3,2]  4.5064060620132129e-02
    MARKER    'MARKER'                 'INTEND'
RHS
    RHS1      allocateEach[1]  1
    RHS1      allocateEach[2]  1
    RHS1      allocateEach[3]  1
    RHS1      allocateEach[4]  1
    RHS1      allocateEach[5]  1
    RHS1      allocateEach[6]  1
    RHS1      allocateEach[7]  1
    RHS1      allocateEach[8]  1
    RHS1      allocateEach[9]  1
    RHS1      allocateAllCash  1
BOUNDS
 UP BND1      z         1
 MI BND1      cashProportion[1]
 UP BND1      cashProportion[1]  1
 MI BND1      cashProportion[2]
 UP BND1      cashProportion[2]  1
 MI BND1      cashProportion[3]
 UP BND1      cashProportion[3]  1
 BV BND1      x[1,1]  
 BV BND1      x[1,2]  
 BV BND1      x[1,3]  
 BV BND1      x[1,4]  
 BV BND1      x[1,5]  
 BV BND1      x[1,6]  
 BV BND1      x[1,7]  
 BV BND1      x[1,8]  
 BV BND1      x[1,9]  
 BV BND1      x[2,1]  
 BV BND1      x[2,2]  
 BV BND1      x[2,3]  
 BV BND1      x[2,4]  
 BV BND1      x[2,5]  
 BV BND1      x[2,6]  
 BV BND1      x[2,7]  
 BV BND1      x[2,8]  
 BV BND1      x[2,9]  
 BV BND1      x[3,1]  
 BV BND1      x[3,2]  
 BV BND1      x[3,3]  
 BV BND1      x[3,4]  
 BV BND1      x[3,5]  
 BV BND1      x[3,6]  
 BV BND1      x[3,7]  
 BV BND1      x[3,8]  
 BV BND1      x[3,9]  
ENDATA
